results/x-long/X-n162-k11.vrp_seed-23.out
14150	1270
