results/x-long/X-n162-k11.vrp_seed-23.vrp.sol
Route #1: 136 91 158 108 137 39 146 151 101 4 87 132 93 125 92 155
Route #2: 50 45 152 28 26 48 11 73 38 58 68 145 90 150
Route #3: 25 47 98 83 104 63 113 70 12 51 65 69 41 76
Route #4: 29 10 105 144 119 141 115 156 59
Route #5: 53 86 130 99 35 36 94 66 56 123 43 142 96 102 116 52
Route #6: 15 139 126 138 133 107 122 84 160 85 121 147 159 135 72
Route #7: 54 8 61 46 42 33 3 64 18 19 44 75 7 34 22 78
Route #8: 143 153 110 128 124 134 148 109 2 82 118 30 157 112 40 103
Route #9: 127 17 149 89 14 1 55 60 21 9 27 117 97 77 161
Route #10: 80 111 154 140 31 100 106 88 129 95 114 62 67 20 79
Route #11: 23 24 49 6 13 71 37 131 57 32 16 5 120 81 74
Cost 14150.000000